Welcome to the CBC MILP Solver 
Version: 2.10.7 
Build Date: Feb 14 2022 

command line - cbc inputs/new_tr/order/jump_2_15_up_right_input.lp sec 1800 solve solu solutions/new_tr/jump_2_15_up_right_input.lp (default strategy 1)
seconds was changed from 1e+100 to 1800
Continuous objective value is 27033.6 - 0.00 seconds
Cgl0002I 75 variables fixed
Cgl0003I 0 fixed, 1 tightened bounds, 97 strengthened rows, 0 substitutions
Cgl0003I 0 fixed, 0 tightened bounds, 19 strengthened rows, 0 substitutions
Cgl0003I 0 fixed, 0 tightened bounds, 3 strengthened rows, 0 substitutions
Cgl0003I 0 fixed, 0 tightened bounds, 5 strengthened rows, 0 substitutions
Cgl0004I processed model has 497 rows, 173 columns (173 integer (157 of which binary)) and 1623 elements
Cutoff increment increased from 1e-05 to 0.9999
Cbc0045I 1 integer variables out of 173 objects (173 integer) have cost of 1 - high priority
Cbc0045I branch on satisfied Y create fake objective Y random cost Y
Cbc0038I Initial state - 85 integers unsatisfied sum - 19.1512
Cbc0038I Pass   1: suminf.    2.93648 (19) obj. 29696 iterations 208
Cbc0038I Pass   2: suminf.    0.00000 (0) obj. 29696 iterations 30
Cbc0038I Solution found of 29696
Cbc0038I Cleaned solution of 29696
Cbc0038I Before mini branch and bound, 86 integers at bound fixed and 0 continuous
Cbc0038I Mini branch and bound did not improve solution (0.03 seconds)
Cbc0038I Round again with cutoff of 29435.6
Cbc0038I Reduced cost fixing fixed 3 variables on major pass 2
Cbc0038I Pass   3: suminf.    4.02718 (45) obj. 29435 iterations 39
Cbc0038I Pass   4: suminf.    1.09132 (36) obj. 29435.6 iterations 46
Cbc0038I Pass   5: suminf.    7.71724 (34) obj. 29435.6 iterations 127
Cbc0038I Pass   6: suminf.    7.52165 (27) obj. 29435.6 iterations 50
Cbc0038I Pass   7: suminf.    5.13595 (32) obj. 29435.6 iterations 92
Cbc0038I Pass   8: suminf.    2.50122 (14) obj. 29435.6 iterations 19
Cbc0038I Pass   9: suminf.    6.29370 (22) obj. 29435.6 iterations 67
Cbc0038I Pass  10: suminf.    2.50122 (14) obj. 29435.6 iterations 24
Cbc0038I Pass  11: suminf.   16.21655 (80) obj. 29435.6 iterations 103
Cbc0038I Pass  12: suminf.   11.24628 (58) obj. 29435.6 iterations 106
Cbc0038I Pass  13: suminf.    7.44941 (52) obj. 29435.6 iterations 68
Cbc0038I Pass  14: suminf.    6.89177 (49) obj. 29435.6 iterations 20
Cbc0038I Pass  15: suminf.    5.60654 (36) obj. 29435.6 iterations 47
Cbc0038I Pass  16: suminf.    4.34113 (35) obj. 29435.6 iterations 20
Cbc0038I Pass  17: suminf.    2.68382 (26) obj. 29435.6 iterations 55
Cbc0038I Pass  18: suminf.    2.36954 (23) obj. 29435.6 iterations 18
Cbc0038I Pass  19: suminf.    8.46316 (37) obj. 29435.6 iterations 82
Cbc0038I Pass  20: suminf.    7.43444 (27) obj. 29435.6 iterations 16
Cbc0038I Pass  21: suminf.    2.27207 (26) obj. 29435.6 iterations 20
Cbc0038I Pass  22: suminf.    2.26532 (22) obj. 29435.6 iterations 31
Cbc0038I Pass  23: suminf.    6.23096 (27) obj. 29435.6 iterations 47
Cbc0038I Pass  24: suminf.    7.13073 (29) obj. 29435.6 iterations 53
Cbc0038I Pass  25: suminf.    3.87023 (26) obj. 29435.6 iterations 23
Cbc0038I Pass  26: suminf.    2.82605 (25) obj. 29435.6 iterations 19
Cbc0038I Pass  27: suminf.    7.74321 (31) obj. 29435.6 iterations 49
Cbc0038I Pass  28: suminf.    4.19199 (28) obj. 29435.6 iterations 22
Cbc0038I Pass  29: suminf.    3.15029 (27) obj. 29435.6 iterations 32
Cbc0038I Pass  30: suminf.    6.01939 (24) obj. 29435.6 iterations 44
Cbc0038I Pass  31: suminf.    6.22118 (27) obj. 29435.6 iterations 26
Cbc0038I Pass  32: suminf.    2.27123 (25) obj. 29435.6 iterations 8
Cbc0038I Pass  33: suminf.    2.26251 (21) obj. 29435.6 iterations 28
Cbc0038I Pass  34: suminf.    6.66431 (45) obj. 29435.6 iterations 43
Cbc0038I Pass  35: suminf.    2.26251 (21) obj. 29435.6 iterations 50
Cbc0038I Pass  36: suminf.    6.01939 (24) obj. 29435.6 iterations 25
Cbc0038I Pass  37: suminf.    6.22118 (27) obj. 29435.6 iterations 34
Cbc0038I Pass  38: suminf.    2.27123 (25) obj. 29435.6 iterations 7
Cbc0038I Pass  39: suminf.    5.03709 (28) obj. 29435.6 iterations 87
Cbc0038I Pass  40: suminf.    4.69498 (31) obj. 29435.6 iterations 43
Cbc0038I Pass  41: suminf.    2.87708 (25) obj. 29435.6 iterations 7
Cbc0038I Pass  42: suminf.    6.01939 (24) obj. 29435.6 iterations 36
Cbc0038I Pass  43: suminf.    6.22118 (27) obj. 29435.6 iterations 43
Cbc0038I Pass  44: suminf.    2.27123 (25) obj. 29435.6 iterations 9
Cbc0038I Pass  45: suminf.    2.26251 (21) obj. 29435.6 iterations 22
Cbc0038I Pass  46: suminf.    6.01939 (24) obj. 29435.6 iterations 28
Cbc0038I Pass  47: suminf.   13.97950 (62) obj. 29435.6 iterations 104
Cbc0038I Pass  48: suminf.    3.80894 (29) obj. 29435.6 iterations 96
Cbc0038I Pass  49: suminf.    3.80095 (21) obj. 29435.6 iterations 11
Cbc0038I Pass  50: suminf.    6.23138 (24) obj. 29435.6 iterations 48
Cbc0038I Pass  51: suminf.    2.26251 (21) obj. 29435.6 iterations 15
Cbc0038I Pass  52: suminf.    6.01939 (24) obj. 29435.6 iterations 32
Cbc0038I Pass  53: suminf.    6.22118 (27) obj. 29435.6 iterations 35
Cbc0038I Pass  54: suminf.    2.27123 (25) obj. 29435.6 iterations 8
Cbc0038I Pass  55: suminf.   10.75089 (36) obj. 29435.6 iterations 54
Cbc0038I Pass  56: suminf.    2.26251 (21) obj. 29435.6 iterations 120
Cbc0038I Pass  57: suminf.    6.01939 (24) obj. 29435.6 iterations 33
Cbc0038I Pass  58: suminf.    6.22118 (27) obj. 29435.6 iterations 29
Cbc0038I Pass  59: suminf.    2.27123 (25) obj. 29435.6 iterations 8
Cbc0038I Pass  60: suminf.   16.82208 (68) obj. 29435.6 iterations 100
Cbc0038I Pass  61: suminf.    3.39947 (35) obj. 29435.6 iterations 89
Cbc0038I Pass  62: suminf.    3.39947 (35) obj. 29435.6 iterations 2
Cbc0038I Pass  63: suminf.   10.43720 (42) obj. 29435.6 iterations 69
Cbc0038I Pass  64: suminf.    7.97049 (33) obj. 29435.6 iterations 38
Cbc0038I Pass  65: suminf.    4.06065 (30) obj. 29435.6 iterations 23
Cbc0038I Pass  66: suminf.    3.01415 (29) obj. 29435.6 iterations 22
Cbc0038I Pass  67: suminf.    8.67039 (37) obj. 29435.6 iterations 81
Cbc0038I Pass  68: suminf.    3.15851 (29) obj. 29435.6 iterations 63
Cbc0038I Pass  69: suminf.    3.15737 (29) obj. 29435.6 iterations 9
Cbc0038I Pass  70: suminf.    6.17726 (31) obj. 29435.6 iterations 30
Cbc0038I Pass  71: suminf.    2.26818 (25) obj. 29435.6 iterations 9
Cbc0038I Pass  72: suminf.    2.26263 (22) obj. 29435.6 iterations 21
Cbc0038I Pass  73: suminf.    6.81593 (27) obj. 29435.6 iterations 32
Cbc0038I Pass  74: suminf.   21.48440 (88) obj. 29435.6 iterations 133
Cbc0038I Pass  75: suminf.    7.70291 (63) obj. 29435.6 iterations 115
Cbc0038I Pass  76: suminf.    7.70291 (63) obj. 29435.6 iterations 1
Cbc0038I Pass  77: suminf.    9.43526 (58) obj. 29435.6 iterations 51
Cbc0038I Pass  78: suminf.    8.39666 (40) obj. 29435.6 iterations 87
Cbc0038I Pass  79: suminf.    6.34816 (37) obj. 29435.6 iterations 46
Cbc0038I Pass  80: suminf.    6.22790 (38) obj. 29435.6 iterations 8
Cbc0038I Pass  81: suminf.    5.97740 (38) obj. 29435.6 iterations 69
Cbc0038I Pass  82: suminf.    0.98580 (27) obj. 29435.6 iterations 47
Cbc0038I Pass  83: suminf.    0.98423 (25) obj. 29435.6 iterations 6
Cbc0038I Pass  84: suminf.    9.36657 (38) obj. 29435.6 iterations 78
Cbc0038I Pass  85: suminf.    8.99548 (42) obj. 29435.6 iterations 40
Cbc0038I Pass  86: suminf.    8.74937 (43) obj. 29435.6 iterations 37
Cbc0038I Pass  87: suminf.    7.83468 (45) obj. 29435.6 iterations 15
Cbc0038I Pass  88: suminf.    4.78483 (26) obj. 29435.6 iterations 22
Cbc0038I Pass  89: suminf.    3.97125 (19) obj. 29435.6 iterations 12
Cbc0038I Pass  90: suminf.    2.50898 (18) obj. 29435.6 iterations 19
Cbc0038I Pass  91: suminf.    9.28185 (32) obj. 29435.6 iterations 71
Cbc0038I Pass  92: suminf.    7.43292 (28) obj. 29435.6 iterations 26
Cbc0038I Pass  93: suminf.    4.27224 (26) obj. 29435.6 iterations 39
Cbc0038I Pass  94: suminf.    2.26251 (21) obj. 29435.6 iterations 53
Cbc0038I Pass  95: suminf.    6.01939 (24) obj. 29435.6 iterations 22
Cbc0038I Pass  96: suminf.    6.22118 (27) obj. 29435.6 iterations 39
Cbc0038I Pass  97: suminf.    2.27123 (25) obj. 29435.6 iterations 8
Cbc0038I Pass  98: suminf.    8.45977 (38) obj. 29435.6 iterations 60
Cbc0038I Pass  99: suminf.    6.08122 (36) obj. 29435.6 iterations 46
Cbc0038I Pass 100: suminf.    8.64895 (34) obj. 29435.6 iterations 39
Cbc0038I Pass 101: suminf.    2.26388 (24) obj. 29435.6 iterations 31
Cbc0038I Pass 102: suminf.    3.82062 (41) obj. 29435.6 iterations 61
Cbc0038I No solution found this major pass
Cbc0038I Before mini branch and bound, 10 integers at bound fixed and 0 continuous
Cbc0038I Mini branch and bound did not improve solution (0.18 seconds)
Cbc0038I After 0.18 seconds - Feasibility pump exiting with objective of 29696 - took 0.16 seconds
Cbc0012I Integer solution of 29696 found by feasibility pump after 0 iterations and 0 nodes (0.18 seconds)
Cbc0006I The LP relaxation is infeasible or too expensive
Cbc0013I At root node, 0 cuts changed objective from 27101.309 to 27101.309 in 1 passes
Cbc0014I Cut generator 0 (Probing) - 60 row cuts average 2.3 elements, 43 column cuts (43 active)  in 0.001 seconds - new frequency is 1
Cbc0014I Cut generator 1 (Gomory) - 0 row cuts average 0.0 elements, 0 column cuts (0 active)  in 0.000 seconds - new frequency is -100
Cbc0014I Cut generator 2 (Knapsack) - 0 row cuts average 0.0 elements, 0 column cuts (0 active)  in 0.000 seconds - new frequency is -100
Cbc0014I Cut generator 3 (Clique) - 0 row cuts average 0.0 elements, 0 column cuts (0 active)  in 0.000 seconds - new frequency is -100
Cbc0014I Cut generator 4 (MixedIntegerRounding2) - 0 row cuts average 0.0 elements, 0 column cuts (0 active)  in 0.000 seconds - new frequency is -100
Cbc0014I Cut generator 5 (FlowCover) - 0 row cuts average 0.0 elements, 0 column cuts (0 active)  in 0.000 seconds - new frequency is -100
Cbc0014I Cut generator 6 (TwoMirCuts) - 0 row cuts average 0.0 elements, 0 column cuts (0 active)  in 0.000 seconds - new frequency is -100
Cbc0014I Cut generator 7 (ZeroHalf) - 0 row cuts average 0.0 elements, 0 column cuts (0 active)  in 0.000 seconds - new frequency is -100
Cbc0001I Search completed - best objective 29696, took 0 iterations and 0 nodes (0.20 seconds)
Cbc0035I Maximum depth 0, 1 variables fixed on reduced cost
Cuts at root node changed objective from 27101.3 to 27101.3
Probing was tried 1 times and created 103 cuts of which 0 were active after adding rounds of cuts (0.001 seconds)
Gomory was tried 0 times and created 0 cuts of which 0 were active after adding rounds of cuts (0.000 seconds)
Knapsack was tried 0 times and created 0 cuts of which 0 were active after adding rounds of cuts (0.000 seconds)
Clique was tried 0 times and created 0 cuts of which 0 were active after adding rounds of cuts (0.000 seconds)
MixedIntegerRounding2 was tried 0 times and created 0 cuts of which 0 were active after adding rounds of cuts (0.000 seconds)
FlowCover was tried 0 times and created 0 cuts of which 0 were active after adding rounds of cuts (0.000 seconds)
TwoMirCuts was tried 0 times and created 0 cuts of which 0 were active after adding rounds of cuts (0.000 seconds)
ZeroHalf was tried 0 times and created 0 cuts of which 0 were active after adding rounds of cuts (0.000 seconds)

Result - Optimal solution found

Objective value:                29696.00000000
Enumerated nodes:               0
Total iterations:               0
Time (CPU seconds):             0.20
Time (Wallclock seconds):       0.21

Total time (CPU seconds):       0.21   (Wallclock seconds):       0.21

